(set-logic QF_S)
(declare-fun V5 () String )
(declare-fun V8 () String )
(declare-fun V16 () String )
(declare-fun V3 () String )
(declare-fun V12 () String )
(declare-fun V14 () String )
(declare-fun V6 () String )
(declare-fun V4 () String )
(declare-fun V0 () String )
(declare-fun V9 () String )
(declare-fun V11 () String )
(declare-fun V13 () String )
(declare-fun V2 () String )
(declare-fun V7 () String )
(declare-fun V1 () String )
(declare-fun V15 () String )
(declare-fun V10 () String )
(assert (= "" "," ) )
(assert (= "," V0 ) )
(assert (= V6 (str.++ (str.++ V8 "," ) V9 ) ) )
(assert (= V2 (str.++ (str.++ V5 V6 ) V7 ) ) )
(assert (= V2 (str.++ (str.++ V10 "," ) V11 ) ) )
(assert (= V2 (str.++ (str.++ V12 ".sock" ) V13 ) ) )
(assert (= V4 (str.++ (str.++ V1 V2 ) V3 ) ) )
(assert (= V4 (str.++ (str.++ V15 "://" ) V16 ) ) )
(assert (= V4 (str.++ "mongodb://" V14 ) ) )
( check-sat )
